NAME : E-n23-k3.442985.tour
COMMENT : Length = 442985
COMMENT : Found by LKH [Keld Helsgaun] Sun Dec 17 21:54:50 2017
TYPE : TOUR
DIMENSION : 25
TOUR_SECTION
1
13
12
10
6
5
9
8
22
25
19
20
21
23
18
15
16
17
4
3
2
7
24
14
11
-1
EOF
